NAME : LR1_6_6
TYPE : PDPTW
DIMENSION : 150
EDGE_WEIGHT_TYPE : EXACT_2D
NODE_COORD_SECTION
1 1 0
2 150 0
3 0 0
4 10 221
5 98 2
6 0 1119
7 3 174
8 1053 0
9 166 123
10 10 0
11 293 14
12 0 288
13 24 0
14 470 7
15 670 700
16 8 247
17 848 10
18 152 29
19 10 0
20 216 25
21 0 590
22 -16 1011
23 0 12
24 592 622
25 13 148
26 37 0
27 291 148
28 10 0
29 241 -9
30 383 0
31 -12 750
32 0 17
33 807 837
34 18 266
35 363 10
36 99 226
37 10 0
38 116 22
39 0 408
40 15 363
41 49 22
42 1086 1116
43 23 17
44 607 10
45 96 86
46 10 0
47 228 -23
48 414 0
49 -16 0
50 0 27
51 0 1065
52 28 16
53 283 10
54 67 175
55 10 325
56 286 -18
57 368 0
58 -24 0
59 0 32
60 654 684
61 33 26
62 1022 10
63 37 14
64 10 162
65 11 34
66 0 311
67 -23 804
68 0 37
69 0 1097
70 38 154
71 79 10
72 75 191
73 10 581
74 62 16
75 0 629
76 17 446
77 12 42
78 347 377
79 43 99
80 280 10
81 6 168
82 10 531
83 211 22
84 0 530
85 7 0
86 572 47
87 693 723
88 48 268
89 873 10
90 29 8
91 10 21
92 89 22
93 0 75
94 6 0
95 462 52
96 491 521
97 53 282
98 886 0
99 90 44
100 10 0
101 7 -20
102 334 0
103 14 0
104 555 57
105 0 1094
106 58 207
107 215 10
108 289 143
109 10 480
110 194 7
111 0 297
112 29 770
113 370 62
114 0 1087
115 63 207
116 518 10
117 136 50
118 10 0
119 221 29
120 0 209
121 -5 823
122 0 67
123 459 489
124 68 206
125 776 10
126 227 5
127 10 0
128 287 -14
129 266 0
130 23 17
131 256 72
132 726 756
133 73 152
134 1123 10
135 225 192
136 10 389
137 104 -22
138 50 0
139 -13 789
140 0 77
141 0 1107
142 78 106
143 242 10
144 73 81
145 0 0
146 232 -40
147 558 0
148 42 553
149 200 82
150 484 514
PICKUP_AND_DELIVERY_SECTION
1 0 0 0 0 0 0
2 0 0 0 0 1206 0
3 0 0 0 0 0 71
4 0 0 0 0 10 10
5 0 0 0 0 80 80
6 0 0 0 0 0 0
7 0 0 0 0 21 21
8 0 0 0 0 621 0
9 0 0 0 0 31 31
10 0 0 0 0 5 5
11 0 0 0 0 568 568
12 0 0 0 0 140 140
13 0 0 0 0 10 10
14 0 0 0 0 203 203
15 0 0 0 0 178 178
16 0 0 0 0 -9 -9
17 0 0 0 0 0 0
18 0 0 0 0 899 899
19 0 0 0 0 10 10
20 0 0 0 0 238 238
21 0 0 0 0 107 107
22 0 0 0 0 10 10
23 0 0 0 0 270 270
24 0 0 0 0 41 41
25 0 0 0 0 24 24
26 0 0 0 0 608 0
27 0 0 0 0 636 636
28 0 0 0 0 15 15
29 0 0 0 0 797 797
30 0 0 0 0 162 162
31 0 0 0 0 10 10
32 0 0 0 0 254 254
33 0 0 0 0 435 435
34 0 0 0 0 11 11
35 0 0 0 0 156 0
36 0 0 0 0 0 0
37 0 0 0 0 20 20
38 0 0 0 0 1097 0
39 0 0 0 0 110 110
40 0 0 0 0 10 10
41 0 0 0 0 107 107
42 0 0 0 0 543 543
43 0 0 0 0 -15 0
44 0 0 0 0 0 0
45 0 0 0 0 83 83
46 0 0 0 0 25 25
47 0 0 0 0 387 387
48 0 0 0 0 100 100
49 0 0 0 0 10 10
50 0 0 0 0 277 277
51 0 0 0 0 227 227
52 0 0 0 0 17 17
53 0 0 0 0 513 0
54 0 0 0 0 0 0
55 0 0 0 0 30 0
56 0 0 0 0 432 432
57 0 0 0 0 176 176
58 0 0 0 0 10 10
59 0 0 0 0 14 14
60 0 0 0 0 0 0
61 0 0 0 0 -16 -16
62 0 0 0 0 0 0
63 0 0 0 0 243 243
64 0 0 0 0 35 0
65 0 0 0 0 510 510
66 0 0 0 0 74 74
67 0 0 0 0 10 10
68 0 0 0 0 53 53
69 0 0 0 0 154 154
70 0 0 0 0 21 21
71 0 0 0 0 416 0
72 0 0 0 0 85 85
73 0 0 0 0 40 0
74 0 0 0 0 835 835
75 0 0 0 0 209 209
76 0 0 0 0 10 10
77 0 0 0 0 149 149
78 0 0 0 0 0 0
79 0 0 0 0 -5 -5
80 0 0 0 0 0 0
81 0 0 0 0 744 744
82 0 0 0 0 45 0
83 0 0 0 0 226 226
84 0 0 0 0 254 254
85 0 0 0 0 10 10
86 0 0 0 0 175 175
87 0 0 0 0 0 0
88 0 0 0 0 -18 -18
89 0 0 0 0 0 0
90 0 0 0 0 751 751
91 0 0 0 0 50 0
92 0 0 0 0 856 856
93 0 0 0 0 9 9
94 0 0 0 0 10 10
95 0 0 0 0 294 294
96 0 0 0 0 0 0
97 0 0 0 0 26 26
98 0 0 0 0 613 0
99 0 0 0 0 0 0
100 0 0 0 0 55 55
101 0 0 0 0 1026 0
102 0 0 0 0 176 176
103 0 0 0 0 10 10
104 0 0 0 0 243 243
105 0 0 0 0 0 0
106 0 0 0 0 -3 -3
107 0 0 0 0 0 0
108 0 0 0 0 139 139
109 0 0 0 0 60 0
110 0 0 0 0 128 128
111 0 0 0 0 295 295
112 0 0 0 0 10 10
113 0 0 0 0 62 62
114 0 0 0 0 0 0
115 0 0 0 0 11 11
116 0 0 0 0 498 0
117 0 0 0 0 0 0
118 0 0 0 0 65 65
119 0 0 0 0 326 326
120 0 0 0 0 208 208
121 0 0 0 0 10 10
122 0 0 0 0 29 29
123 0 0 0 0 0 0
124 0 0 0 0 10 10
125 0 0 0 0 310 0
126 0 0 0 0 370 370
127 0 0 0 0 70 70
128 0 0 0 0 1013 1013
129 0 0 0 0 151 151
130 0 0 0 0 10 10
131 0 0 0 0 100 100
132 0 0 0 0 0 0
133 0 0 0 0 10 10
134 0 0 0 0 373 0
135 0 0 0 0 546 546
136 0 0 0 0 75 0
137 0 0 0 0 1150 0
138 0 0 0 0 296 296
139 0 0 0 0 10 10
140 0 0 0 0 170 170
141 0 0 0 0 0 0
142 0 0 0 0 21 21
143 0 0 0 0 122 0
144 0 0 0 0 556 556
145 0 0 0 0 80 80
146 0 0 0 0 963 963
147 0 0 0 0 112 112
148 0 0 0 0 10 10
149 0 0 0 0 251 251
150 0 0 0 0 238 238
DEPOT_SECTION
1 
-1
EOF
